Route 1: 0 29 27 30 77 67 63 89 59 98 6 0
Route 2: 0 72 23 48 10 51 75 94 0
Route 3: 0 73 18 58 12 84 66 16 5 71 74 0
Route 4: 0 79 45 86 3 52 100 42 11 41 17 0
Route 5: 0 46 97 33 83 4 19 0
Route 6: 0 61 49 24 95 53 36 15 50 88 14 0
Route 7: 0 8 43 60 44 31 32 90 91 40 47 26 37 0
Route 8: 0 25 82 96 21 69 93 34 55 0
Route 9: 0 64 80 76 56 78 39 22 28 87 62 0
Route 10: 0 54 92 13 68 70 2 57 65 85 38 0
Route 11: 0 1 35 9 7 81 99 20 0
